UNSAT
Input variables: 5184
Total nodes: 2419742
Maximum live nodes: 41224
Total apply operations: 5981957
Total GCs performed: 1664
Results from proof generation
Total Clauses: 15595841
Input clauses: 13824
Elapsed time for SAT: 801.20 seconds
c parsed a formula with 5184 variables and 13824 clauses
c VERIFIED
c Added clauses = 15595841.  Deleted clauses = 15527385.  Max live clauses = 151814
c verification time = 12.49 secs
